=obj=                80598.4300968607
C0001                153
C0002                73
C0003                0
C0004                117
C0005                62
C0006                0
C0007                135
C0008                66
C0009                0
C0010                151
C0011                73
C0012                0
C0013                132
C0014                66
C0015                0
C0016                135
C0017                78
C0018                0
C0019                145
C0020                86
C0021                -1.13686837721616e-13
C0022                146
C0023                84
C0024                0
C0025                29
C0026                0
C0027                0
C0028                61
C0029                30
C0030                0
C0031                0
C0032                29
C0033                0
C0034                27
C0035                0
C0036                0
C0037                56
C0038                30
C0039                0
C0040                63
C0041                37
C0042                0
C0043                0
C0044                27
C0045                0
C0046                29
C0047                0
C0048                0
C0049                0
C0050                52
C0051                0
C0052                47.9999999999999
C0053                0
C0054                51
C0055                0
C0056                50
C0057                0
C0058                48
C0059                0
C0060                0
C0061                96
C0062                49
C0063                0
C0064                92
C0065                45
C0066                0
C0067                87
C0068                40
C0069                0
C0070                97
C0071                47
C0072                0
C0073                223
C0074                104
C0075                0
C0076                95
C0077                0
C0078                106
C0079                0
C0080                114
C0081                0
C0082                105
C0083                0
C0084                267
C0085                178
C0086                78.9999999999999
C0087                0
C0088                222
C0089                98
C0090                0
C0091                173
C0092                84
C0093                0
C0094                196
C0095                91
C0096                0
C0097                31
C0098                31
C0099                0
C0100                0
C0101                0
C0102                0
C0103                57
C0104                0
C0105                0
C0106                26
C0107                26
C0108                0
C0109                0
C0110                0
C0111                0
C0112                0
C0113                0
C0114                0
C0115                58.0000000000001
C0116                1.13686837721616e-13
C0117                0
C0118                32.0000000000002
C0119                32
C0120                0
C0121                0
C0122                0
C0123                0
C0124                0
C0125                0
C0126                0
C0127                0
C0128                0
C0129                0
C0130                0
C0131                0
C0132                0
C0133                0
C0134                0
C0135                0
C0136                0
C0137                0
C0138                0
C0139                0
C0140                0
C0141                0
C0142                0
C0143                0
C0144                0
C0145                0
C0146                0
C0147                0
C0148                0
C0149                0
C0150                0
C0151                0
C0152                0
C0153                0
C0154                0
C0155                0
C0156                0
C0157                0
C0158                0
C0159                0
C0160                0
C0161                0
C0162                0
C0163                0
C0164                0
C0165                0
C0166                0
C0167                0
C0168                0
C0169                0
C0170                0
C0171                0
C0172                0
C0173                0
C0174                0
C0175                0
C0176                0
C0177                0
C0178                0
C0179                0
C0180                0
C0181                0
C0182                0
C0183                0
C0184                0
C0185                0
C0186                0
C0187                0
C0188                0
C0189                0
C0190                0
C0191                0
C0192                0
C0193                0
C0194                0
C0195                0
C0196                0
C0197                0
C0198                0
C0199                0
C0200                0
C0201                0
C0202                77
C0203                77
C0204                0
C0205                0
C0206                0
C0207                0
C0208                0
C0209                0
C0210                0
C0211                58
C0212                0
C0213                1.4122036873232e-13
C0214                32
C0215                32
C0216                0
C0217                241
C0218                31.0000000000001
C0219                0
C0220                451
C0221                451
C0222                34
C0223                0
C0224                470
C0225                470
C0226                0
C0227                0
C0228                392
C0229                0
C0230                0
C0231                -1.13686837721616e-13
C0232                0
C0233                0
C0234                0
C0235                58
C0236                0
C0237                0
C0238                32
C0239                32
C0240                0
C0241                0
C0242                0
C0243                0
C0244                0
C0245                0
C0246                0
C0247                0
C0248                0
C0249                0
C0250                0
C0251                0
C0252                0
C0253                0
C0254                0
C0255                0
C0256                0
C0257                0
C0258                0
C0259                0
C0260                0
C0261                0
C0262                0
C0263                0
C0264                0
C0265                0
C0266                0
C0267                0
C0268                0
C0269                0
C0270                0
C0271                0
C0272                0
C0273                0
C0274                0
C0275                0
C0276                0
C0277                0
C0278                0
C0279                0
C0280                0
C0281                0
C0282                0
C0283                0
C0284                0
C0285                0
C0286                0
C0287                0
C0288                0
C0289                0
C0290                0
C0291                0
C0292                0
C0293                0
C0294                0
C0295                0
C0296                0
C0297                0
C0298                0
C0299                0
C0300                0
C0301                0
C0302                0
C0303                0
C0304                0
C0305                0
C0306                0
C0307                0
C0308                0
C0309                0
C0310                0
C0311                0
C0312                0
C0313                217
C0314                0
C0315                0
C0316                192
C0317                0
C0318                0
C0319                208
C0320                0
C0321                0
C0322                223
C0323                0
C0324                0
C0325                211
C0326                0
C0327                0
C0328                212
C0329                0
C0330                0
C0331                212
C0332                0
C0333                -1.13686837721616e-13
C0334                214
C0335                1.70530256582424e-13
C0336                0
C0337                57
C0338                0
C0339                31
C0340                93
C0341                0
C0342                0
C0343                34
C0344                57
C0345                0
C0346                57
C0347                0
C0348                26
C0349                92
C0350                0
C0351                0
C0352                94
C0353                0
C0354                0
C0355                33
C0356                58
C0357                0
C0358                58
C0359                0
C0360                32
C0361                48
C0362                105
C0363                0
C0364                99.9999999999999
C0365                0
C0366                98
C0367                0
C0368                102
C0369                0
C0370                101
C0371                0
C0372                51
C0373                150
C0374                0
C0375                0
C0376                145
C0377                0
C0378                0
C0379                137
C0380                0
C0381                0
C0382                145
C0383                0
C0384                0
C0385                317
C0386                0
C0387                0
C0388                199
C0389                0
C0390                221
C0391                0
C0392                214
C0393                0
C0394                211
C0395                0
C0396                400
C0397                0
C0398                0
C0399                1.13686837721616e-13
C0400                312
C0401                0
C0402                0
C0403                290
C0404                0
C0405                0
C0406                299
C0407                0
C0408                0
C0409                305
C0410                0
C0411                0
C0412                285
C0413                0
C0414                0
C0415                299
C0416                0
C0417                0
C0418                306
C0419                0
C0420                0
C0421                303
C0422                0
C0423                0
C0424                306
C0425                0
C0426                0
C0427                303
C0428                0
C0429                -2.27373675443232e-13
C0430                304
C0431                0
C0432                0
C0433                105
C0434                105
C0435                31
C0436                193
C0437                0
C0438                98
C0439                34
C0440                159
C0441                0
C0442                158
C0443                0
C0444                77
C0445                242
C0446                0
C0447                0
C0448                239
C0449                0
C0450                0
C0451                170
C0452                58
C0453                0
C0454                203
C0455                0
C0456                32
C0457                365
C0458                105
C0459                0
C0460                299
C0461                0
C0462                319
C0463                0
C0464                316
C0465                0
C0466                312
C0467                0
C0468                451
C0469                150
C0470                0
C0471                1.13686837721616e-13
C0472                457
C0473                0
C0474                0
C0475                427
C0476                0
C0477                0
C0478                444
C0479                0
C0480                0
C0481                305
C0482                0
C0483                0
C0484                285
C0485                0
C0486                0
C0487                299
C0488                0
C0489                0
C0490                306
C0491                0
C0492                0
C0493                303
C0494                0
C0495                0
C0496                306
C0497                0
C0498                0
C0499                303
C0500                0
C0501                -2.27373675443232e-13
C0502                304
C0503                0
C0504                0
C0505                410
C0506                105
C0507                31
C0508                478
C0509                0
C0510                98
C0511                333
C0512                159
C0513                0
C0514                541
C0515                0
C0516                0
C0517                545
C0518                0
C0519                0
C0520                545
C0521                0
C0522                0
C0523                531
C0524                0
C0525                0
C0526                539
C0527                0
C0528                0
C0529                711
C0530                0
C0531                0
C0532                943
C0533                0
C0534                0
C0535                0
C0536                945
C0537                0
C0538                0
C0539                0
C0540                920
C0541                0
C0542                0
C0543                0
C0544                696
C0545                0
C0546                0
C0547                655
C0548                0
C0549                0
C0550                679
C0551                0
C0552                0
C0553                1
C0554                0
C0555                0
C0556                1
C0557                0
C0558                0
C0559                1
C0560                0
C0561                0
C0562                1
C0563                0
C0564                0
C0565                1
C0566                0
C0567                0
C0568                1
C0569                0
C0570                0
C0571                1
C0572                0
C0573                0
C0574                1
C0575                0
C0576                0
C0577                1
C0578                0
C0579                1
C0580                1
C0581                0
C0582                0
C0583                1
C0584                1
C0585                0
C0586                1
C0587                0
C0588                1
C0589                1
C0590                0
C0591                0
C0592                1
C0593                0
C0594                0
C0595                1
C0596                1
C0597                0
C0598                1
C0599                0
C0600                1
C0601                1
C0602                1
C0603                0
C0604                1
C0605                0
C0606                1
C0607                0
C0608                1
C0609                0
C0610                1
C0611                0
C0612                1
C0613                1
C0614                0
C0615                0
C0616                1
C0617                0
C0618                0
C0619                1
C0620                0
C0621                0
C0622                1
C0623                0
C0624                0
C0625                1
C0626                0
C0627                0
C0628                1
C0629                0
C0630                1
C0631                0
C0632                1
C0633                0
C0634                1
C0635                0
C0636                1
C0637                0
C0638                0
C0639                0
C0640                1
C0641                0
C0642                0
C0643                1
C0644                0
C0645                0
C0646                1
C0647                0
C0648                0
C0649                1
C0650                0
C0651                0
C0652                1
C0653                0
C0654                0
C0655                1
C0656                0
C0657                0
C0658                1
C0659                0
C0660                0
C0661                1
C0662                0
C0663                0
C0664                1
C0665                0
C0666                0
C0667                1
C0668                0
C0669                0
C0670                1
C0671                0
C0672                0
C0673                0.105105105105105
C0674                0.105105105105105
C0675                0.031031031031031
C0676                0.193193193193193
C0677                0
C0678                0.09809809809809809
C0679                0.034034034034034
C0680                0.159159159159159
C0681                0
C0682                0.158158158158158
C0683                0
C0684                0.0770770770770771
C0685                0.242242242242242
C0686                0
C0687                0
C0688                0.239239239239239
C0689                0
C0690                0
C0691                0.17017017017017
C0692                0.0580580580580581
C0693                0
C0694                0.203203203203203
C0695                0
C0696                0.032032032032032
C0697                0.365365365365365
C0698                0.105105105105105
C0699                0
C0700                0.299299299299299
C0701                0
C0702                0.319319319319319
C0703                0
C0704                0.316316316316316
C0705                0
C0706                0.312312312312312
C0707                0
C0708                0.451451451451451
C0709                0.15015015015015
C0710                0
C0711                1.13800638359976e-16
C0712                0.457457457457457
C0713                0
C0714                0
C0715                0.427427427427427
C0716                0
C0717                0
C0718                0.444444444444444
C0719                0
C0720                0
C0721                0.305305305305305
C0722                0
C0723                0
C0724                0.285285285285285
C0725                0
C0726                0
C0727                0.299299299299299
C0728                0
C0729                0
C0730                0.306306306306306
C0731                0
C0732                0
C0733                0.303303303303303
C0734                0
C0735                0
C0736                0.306306306306306
C0737                0
C0738                0
C0739                0.303303303303303
C0740                0
C0741                -2.27601276719952e-16
C0742                0.304304304304304
C0743                0
C0744                0
C0745                0.41041041041041
C0746                0.105105105105105
C0747                0.031031031031031
C0748                0.478478478478478
C0749                0
C0750                0.09809809809809809
C0751                0.333333333333333
C0752                0.159159159159159
C0753                0
C0754                1
C0755                0
C0756                0
C0757                1
C0758                0
C0759                0
C0760                1
C0761                0
C0762                0
C0763                1
C0764                0
C0765                0
C0766                1
C0767                0
C0768                0
C0769                1
C0770                0
C0771                0
C0772                1
C0773                0
C0774                0
C0775                0
C0776                1
C0777                0
C0778                0
C0779                0
C0780                1
C0781                0
C0782                0
C0783                0
C0784                1
C0785                0
C0786                0
C0787                1
C0788                0
C0789                0
C0790                1
C0791                0
C0792                0
